p cnf 360 3352
1 2 3 4 5 6 7 8 9 0
10 11 12 13 14 15 16 17 18 0
19 20 21 22 23 24 25 26 27 0
28 29 30 31 32 33 34 35 36 0
37 38 39 40 41 42 43 44 45 0
46 47 48 49 50 51 52 53 54 0
55 56 57 58 59 60 61 62 63 0
64 65 66 67 68 69 70 71 72 0
73 74 75 76 77 78 79 80 81 0
82 83 84 85 86 87 88 89 90 0
91 92 93 94 95 96 97 98 99 0
100 101 102 103 104 105 106 107 108 0
109 110 111 112 113 114 115 116 117 0
118 119 120 121 122 123 124 125 126 0
127 128 129 130 131 132 133 134 135 0
136 137 138 139 140 141 142 143 144 0
145 146 147 148 149 150 151 152 153 0
154 155 156 157 158 159 160 161 162 0
163 164 165 166 167 168 169 170 171 0
172 173 174 175 176 177 178 179 180 0
181 182 183 184 185 186 187 188 189 0
190 191 192 193 194 195 196 197 198 0
199 200 201 202 203 204 205 206 207 0
208 209 210 211 212 213 214 215 216 0
217 218 219 220 221 222 223 224 225 0
226 227 228 229 230 231 232 233 234 0
235 236 237 238 239 240 241 242 243 0
244 245 246 247 248 249 250 251 252 0
253 254 255 256 257 258 259 260 261 0
262 263 264 265 266 267 268 269 270 0
271 272 273 274 275 276 277 278 279 0
280 281 282 283 284 285 286 287 288 0
289 290 291 292 293 294 295 296 297 0
298 299 300 301 302 303 304 305 306 0
307 308 309 310 311 312 313 314 315 0
316 317 318 319 320 321 322 323 324 0
325 326 327 328 329 330 331 332 333 0
334 335 336 337 338 339 340 341 342 0
343 344 345 346 347 348 349 350 351 0
352 353 354 355 356 357 358 359 360 0
-1 -2 0
-1 -3 0
-1 -4 0
-1 -5 0
-1 -6 0
-1 -7 0
-1 -8 0
-1 -9 0
-2 -3 0
-2 -4 0
-2 -5 0
-2 -6 0
-2 -7 0
-2 -8 0
-2 -9 0
-3 -4 0
-3 -5 0
-3 -6 0
-3 -7 0
-3 -8 0
-3 -9 0
-4 -5 0
-4 -6 0
-4 -7 0
-4 -8 0
-4 -9 0
-5 -6 0
-5 -7 0
-5 -8 0
-5 -9 0
-6 -7 0
-6 -8 0
-6 -9 0
-7 -8 0
-7 -9 0
-8 -9 0
-10 -11 0
-10 -12 0
-10 -13 0
-10 -14 0
-10 -15 0
-10 -16 0
-10 -17 0
-10 -18 0
-11 -12 0
-11 -13 0
-11 -14 0
-11 -15 0
-11 -16 0
-11 -17 0
-11 -18 0
-12 -13 0
-12 -14 0
-12 -15 0
-12 -16 0
-12 -17 0
-12 -18 0
-13 -14 0
-13 -15 0
-13 -16 0
-13 -17 0
-13 -18 0
-14 -15 0
-14 -16 0
-14 -17 0
-14 -18 0
-15 -16 0
-15 -17 0
-15 -18 0
-16 -17 0
-16 -18 0
-17 -18 0
-19 -20 0
-19 -21 0
-19 -22 0
-19 -23 0
-19 -24 0
-19 -25 0
-19 -26 0
-19 -27 0
-20 -21 0
-20 -22 0
-20 -23 0
-20 -24 0
-20 -25 0
-20 -26 0
-20 -27 0
-21 -22 0
-21 -23 0
-21 -24 0
-21 -25 0
-21 -26 0
-21 -27 0
-22 -23 0
-22 -24 0
-22 -25 0
-22 -26 0
-22 -27 0
-23 -24 0
-23 -25 0
-23 -26 0
-23 -27 0
-24 -25 0
-24 -26 0
-24 -27 0
-25 -26 0
-25 -27 0
-26 -27 0
-28 -29 0
-28 -30 0
-28 -31 0
-28 -32 0
-28 -33 0
-28 -34 0
-28 -35 0
-28 -36 0
-29 -30 0
-29 -31 0
-29 -32 0
-29 -33 0
-29 -34 0
-29 -35 0
-29 -36 0
-30 -31 0
-30 -32 0
-30 -33 0
-30 -34 0
-30 -35 0
-30 -36 0
-31 -32 0
-31 -33 0
-31 -34 0
-31 -35 0
-31 -36 0
-32 -33 0
-32 -34 0
-32 -35 0
-32 -36 0
-33 -34 0
-33 -35 0
-33 -36 0
-34 -35 0
-34 -36 0
-35 -36 0
-37 -38 0
-37 -39 0
-37 -40 0
-37 -41 0
-37 -42 0
-37 -43 0
-37 -44 0
-37 -45 0
-38 -39 0
-38 -40 0
-38 -41 0
-38 -42 0
-38 -43 0
-38 -44 0
-38 -45 0
-39 -40 0
-39 -41 0
-39 -42 0
-39 -43 0
-39 -44 0
-39 -45 0
-40 -41 0
-40 -42 0
-40 -43 0
-40 -44 0
-40 -45 0
-41 -42 0
-41 -43 0
-41 -44 0
-41 -45 0
-42 -43 0
-42 -44 0
-42 -45 0
-43 -44 0
-43 -45 0
-44 -45 0
-46 -47 0
-46 -48 0
-46 -49 0
-46 -50 0
-46 -51 0
-46 -52 0
-46 -53 0
-46 -54 0
-47 -48 0
-47 -49 0
-47 -50 0
-47 -51 0
-47 -52 0
-47 -53 0
-47 -54 0
-48 -49 0
-48 -50 0
-48 -51 0
-48 -52 0
-48 -53 0
-48 -54 0
-49 -50 0
-49 -51 0
-49 -52 0
-49 -53 0
-49 -54 0
-50 -51 0
-50 -52 0
-50 -53 0
-50 -54 0
-51 -52 0
-51 -53 0
-51 -54 0
-52 -53 0
-52 -54 0
-53 -54 0
-55 -56 0
-55 -57 0
-55 -58 0
-55 -59 0
-55 -60 0
-55 -61 0
-55 -62 0
-55 -63 0
-56 -57 0
-56 -58 0
-56 -59 0
-56 -60 0
-56 -61 0
-56 -62 0
-56 -63 0
-57 -58 0
-57 -59 0
-57 -60 0
-57 -61 0
-57 -62 0
-57 -63 0
-58 -59 0
-58 -60 0
-58 -61 0
-58 -62 0
-58 -63 0
-59 -60 0
-59 -61 0
-59 -62 0
-59 -63 0
-60 -61 0
-60 -62 0
-60 -63 0
-61 -62 0
-61 -63 0
-62 -63 0
-64 -65 0
-64 -66 0
-64 -67 0
-64 -68 0
-64 -69 0
-64 -70 0
-64 -71 0
-64 -72 0
-65 -66 0
-65 -67 0
-65 -68 0
-65 -69 0
-65 -70 0
-65 -71 0
-65 -72 0
-66 -67 0
-66 -68 0
-66 -69 0
-66 -70 0
-66 -71 0
-66 -72 0
-67 -68 0
-67 -69 0
-67 -70 0
-67 -71 0
-67 -72 0
-68 -69 0
-68 -70 0
-68 -71 0
-68 -72 0
-69 -70 0
-69 -71 0
-69 -72 0
-70 -71 0
-70 -72 0
-71 -72 0
-73 -74 0
-73 -75 0
-73 -76 0
-73 -77 0
-73 -78 0
-73 -79 0
-73 -80 0
-73 -81 0
-74 -75 0
-74 -76 0
-74 -77 0
-74 -78 0
-74 -79 0
-74 -80 0
-74 -81 0
-75 -76 0
-75 -77 0
-75 -78 0
-75 -79 0
-75 -80 0
-75 -81 0
-76 -77 0
-76 -78 0
-76 -79 0
-76 -80 0
-76 -81 0
-77 -78 0
-77 -79 0
-77 -80 0
-77 -81 0
-78 -79 0
-78 -80 0
-78 -81 0
-79 -80 0
-79 -81 0
-80 -81 0
-82 -83 0
-82 -84 0
-82 -85 0
-82 -86 0
-82 -87 0
-82 -88 0
-82 -89 0
-82 -90 0
-83 -84 0
-83 -85 0
-83 -86 0
-83 -87 0
-83 -88 0
-83 -89 0
-83 -90 0
-84 -85 0
-84 -86 0
-84 -87 0
-84 -88 0
-84 -89 0
-84 -90 0
-85 -86 0
-85 -87 0
-85 -88 0
-85 -89 0
-85 -90 0
-86 -87 0
-86 -88 0
-86 -89 0
-86 -90 0
-87 -88 0
-87 -89 0
-87 -90 0
-88 -89 0
-88 -90 0
-89 -90 0
-91 -92 0
-91 -93 0
-91 -94 0
-91 -95 0
-91 -96 0
-91 -97 0
-91 -98 0
-91 -99 0
-92 -93 0
-92 -94 0
-92 -95 0
-92 -96 0
-92 -97 0
-92 -98 0
-92 -99 0
-93 -94 0
-93 -95 0
-93 -96 0
-93 -97 0
-93 -98 0
-93 -99 0
-94 -95 0
-94 -96 0
-94 -97 0
-94 -98 0
-94 -99 0
-95 -96 0
-95 -97 0
-95 -98 0
-95 -99 0
-96 -97 0
-96 -98 0
-96 -99 0
-97 -98 0
-97 -99 0
-98 -99 0
-100 -101 0
-100 -102 0
-100 -103 0
-100 -104 0
-100 -105 0
-100 -106 0
-100 -107 0
-100 -108 0
-101 -102 0
-101 -103 0
-101 -104 0
-101 -105 0
-101 -106 0
-101 -107 0
-101 -108 0
-102 -103 0
-102 -104 0
-102 -105 0
-102 -106 0
-102 -107 0
-102 -108 0
-103 -104 0
-103 -105 0
-103 -106 0
-103 -107 0
-103 -108 0
-104 -105 0
-104 -106 0
-104 -107 0
-104 -108 0
-105 -106 0
-105 -107 0
-105 -108 0
-106 -107 0
-106 -108 0
-107 -108 0
-109 -110 0
-109 -111 0
-109 -112 0
-109 -113 0
-109 -114 0
-109 -115 0
-109 -116 0
-109 -117 0
-110 -111 0
-110 -112 0
-110 -113 0
-110 -114 0
-110 -115 0
-110 -116 0
-110 -117 0
-111 -112 0
-111 -113 0
-111 -114 0
-111 -115 0
-111 -116 0
-111 -117 0
-112 -113 0
-112 -114 0
-112 -115 0
-112 -116 0
-112 -117 0
-113 -114 0
-113 -115 0
-113 -116 0
-113 -117 0
-114 -115 0
-114 -116 0
-114 -117 0
-115 -116 0
-115 -117 0
-116 -117 0
-118 -119 0
-118 -120 0
-118 -121 0
-118 -122 0
-118 -123 0
-118 -124 0
-118 -125 0
-118 -126 0
-119 -120 0
-119 -121 0
-119 -122 0
-119 -123 0
-119 -124 0
-119 -125 0
-119 -126 0
-120 -121 0
-120 -122 0
-120 -123 0
-120 -124 0
-120 -125 0
-120 -126 0
-121 -122 0
-121 -123 0
-121 -124 0
-121 -125 0
-121 -126 0
-122 -123 0
-122 -124 0
-122 -125 0
-122 -126 0
-123 -124 0
-123 -125 0
-123 -126 0
-124 -125 0
-124 -126 0
-125 -126 0
-127 -128 0
-127 -129 0
-127 -130 0
-127 -131 0
-127 -132 0
-127 -133 0
-127 -134 0
-127 -135 0
-128 -129 0
-128 -130 0
-128 -131 0
-128 -132 0
-128 -133 0
-128 -134 0
-128 -135 0
-129 -130 0
-129 -131 0
-129 -132 0
-129 -133 0
-129 -134 0
-129 -135 0
-130 -131 0
-130 -132 0
-130 -133 0
-130 -134 0
-130 -135 0
-131 -132 0
-131 -133 0
-131 -134 0
-131 -135 0
-132 -133 0
-132 -134 0
-132 -135 0
-133 -134 0
-133 -135 0
-134 -135 0
-136 -137 0
-136 -138 0
-136 -139 0
-136 -140 0
-136 -141 0
-136 -142 0
-136 -143 0
-136 -144 0
-137 -138 0
-137 -139 0
-137 -140 0
-137 -141 0
-137 -142 0
-137 -143 0
-137 -144 0
-138 -139 0
-138 -140 0
-138 -141 0
-138 -142 0
-138 -143 0
-138 -144 0
-139 -140 0
-139 -141 0
-139 -142 0
-139 -143 0
-139 -144 0
-140 -141 0
-140 -142 0
-140 -143 0
-140 -144 0
-141 -142 0
-141 -143 0
-141 -144 0
-142 -143 0
-142 -144 0
-143 -144 0
-145 -146 0
-145 -147 0
-145 -148 0
-145 -149 0
-145 -150 0
-145 -151 0
-145 -152 0
-145 -153 0
-146 -147 0
-146 -148 0
-146 -149 0
-146 -150 0
-146 -151 0
-146 -152 0
-146 -153 0
-147 -148 0
-147 -149 0
-147 -150 0
-147 -151 0
-147 -152 0
-147 -153 0
-148 -149 0
-148 -150 0
-148 -151 0
-148 -152 0
-148 -153 0
-149 -150 0
-149 -151 0
-149 -152 0
-149 -153 0
-150 -151 0
-150 -152 0
-150 -153 0
-151 -152 0
-151 -153 0
-152 -153 0
-154 -155 0
-154 -156 0
-154 -157 0
-154 -158 0
-154 -159 0
-154 -160 0
-154 -161 0
-154 -162 0
-155 -156 0
-155 -157 0
-155 -158 0
-155 -159 0
-155 -160 0
-155 -161 0
-155 -162 0
-156 -157 0
-156 -158 0
-156 -159 0
-156 -160 0
-156 -161 0
-156 -162 0
-157 -158 0
-157 -159 0
-157 -160 0
-157 -161 0
-157 -162 0
-158 -159 0
-158 -160 0
-158 -161 0
-158 -162 0
-159 -160 0
-159 -161 0
-159 -162 0
-160 -161 0
-160 -162 0
-161 -162 0
-163 -164 0
-163 -165 0
-163 -166 0
-163 -167 0
-163 -168 0
-163 -169 0
-163 -170 0
-163 -171 0
-164 -165 0
-164 -166 0
-164 -167 0
-164 -168 0
-164 -169 0
-164 -170 0
-164 -171 0
-165 -166 0
-165 -167 0
-165 -168 0
-165 -169 0
-165 -170 0
-165 -171 0
-166 -167 0
-166 -168 0
-166 -169 0
-166 -170 0
-166 -171 0
-167 -168 0
-167 -169 0
-167 -170 0
-167 -171 0
-168 -169 0
-168 -170 0
-168 -171 0
-169 -170 0
-169 -171 0
-170 -171 0
-172 -173 0
-172 -174 0
-172 -175 0
-172 -176 0
-172 -177 0
-172 -178 0
-172 -179 0
-172 -180 0
-173 -174 0
-173 -175 0
-173 -176 0
-173 -177 0
-173 -178 0
-173 -179 0
-173 -180 0
-174 -175 0
-174 -176 0
-174 -177 0
-174 -178 0
-174 -179 0
-174 -180 0
-175 -176 0
-175 -177 0
-175 -178 0
-175 -179 0
-175 -180 0
-176 -177 0
-176 -178 0
-176 -179 0
-176 -180 0
-177 -178 0
-177 -179 0
-177 -180 0
-178 -179 0
-178 -180 0
-179 -180 0
-181 -182 0
-181 -183 0
-181 -184 0
-181 -185 0
-181 -186 0
-181 -187 0
-181 -188 0
-181 -189 0
-182 -183 0
-182 -184 0
-182 -185 0
-182 -186 0
-182 -187 0
-182 -188 0
-182 -189 0
-183 -184 0
-183 -185 0
-183 -186 0
-183 -187 0
-183 -188 0
-183 -189 0
-184 -185 0
-184 -186 0
-184 -187 0
-184 -188 0
-184 -189 0
-185 -186 0
-185 -187 0
-185 -188 0
-185 -189 0
-186 -187 0
-186 -188 0
-186 -189 0
-187 -188 0
-187 -189 0
-188 -189 0
-190 -191 0
-190 -192 0
-190 -193 0
-190 -194 0
-190 -195 0
-190 -196 0
-190 -197 0
-190 -198 0
-191 -192 0
-191 -193 0
-191 -194 0
-191 -195 0
-191 -196 0
-191 -197 0
-191 -198 0
-192 -193 0
-192 -194 0
-192 -195 0
-192 -196 0
-192 -197 0
-192 -198 0
-193 -194 0
-193 -195 0
-193 -196 0
-193 -197 0
-193 -198 0
-194 -195 0
-194 -196 0
-194 -197 0
-194 -198 0
-195 -196 0
-195 -197 0
-195 -198 0
-196 -197 0
-196 -198 0
-197 -198 0
-199 -200 0
-199 -201 0
-199 -202 0
-199 -203 0
-199 -204 0
-199 -205 0
-199 -206 0
-199 -207 0
-200 -201 0
-200 -202 0
-200 -203 0
-200 -204 0
-200 -205 0
-200 -206 0
-200 -207 0
-201 -202 0
-201 -203 0
-201 -204 0
-201 -205 0
-201 -206 0
-201 -207 0
-202 -203 0
-202 -204 0
-202 -205 0
-202 -206 0
-202 -207 0
-203 -204 0
-203 -205 0
-203 -206 0
-203 -207 0
-204 -205 0
-204 -206 0
-204 -207 0
-205 -206 0
-205 -207 0
-206 -207 0
-208 -209 0
-208 -210 0
-208 -211 0
-208 -212 0
-208 -213 0
-208 -214 0
-208 -215 0
-208 -216 0
-209 -210 0
-209 -211 0
-209 -212 0
-209 -213 0
-209 -214 0
-209 -215 0
-209 -216 0
-210 -211 0
-210 -212 0
-210 -213 0
-210 -214 0
-210 -215 0
-210 -216 0
-211 -212 0
-211 -213 0
-211 -214 0
-211 -215 0
-211 -216 0
-212 -213 0
-212 -214 0
-212 -215 0
-212 -216 0
-213 -214 0
-213 -215 0
-213 -216 0
-214 -215 0
-214 -216 0
-215 -216 0
-217 -218 0
-217 -219 0
-217 -220 0
-217 -221 0
-217 -222 0
-217 -223 0
-217 -224 0
-217 -225 0
-218 -219 0
-218 -220 0
-218 -221 0
-218 -222 0
-218 -223 0
-218 -224 0
-218 -225 0
-219 -220 0
-219 -221 0
-219 -222 0
-219 -223 0
-219 -224 0
-219 -225 0
-220 -221 0
-220 -222 0
-220 -223 0
-220 -224 0
-220 -225 0
-221 -222 0
-221 -223 0
-221 -224 0
-221 -225 0
-222 -223 0
-222 -224 0
-222 -225 0
-223 -224 0
-223 -225 0
-224 -225 0
-226 -227 0
-226 -228 0
-226 -229 0
-226 -230 0
-226 -231 0
-226 -232 0
-226 -233 0
-226 -234 0
-227 -228 0
-227 -229 0
-227 -230 0
-227 -231 0
-227 -232 0
-227 -233 0
-227 -234 0
-228 -229 0
-228 -230 0
-228 -231 0
-228 -232 0
-228 -233 0
-228 -234 0
-229 -230 0
-229 -231 0
-229 -232 0
-229 -233 0
-229 -234 0
-230 -231 0
-230 -232 0
-230 -233 0
-230 -234 0
-231 -232 0
-231 -233 0
-231 -234 0
-232 -233 0
-232 -234 0
-233 -234 0
-235 -236 0
-235 -237 0
-235 -238 0
-235 -239 0
-235 -240 0
-235 -241 0
-235 -242 0
-235 -243 0
-236 -237 0
-236 -238 0
-236 -239 0
-236 -240 0
-236 -241 0
-236 -242 0
-236 -243 0
-237 -238 0
-237 -239 0
-237 -240 0
-237 -241 0
-237 -242 0
-237 -243 0
-238 -239 0
-238 -240 0
-238 -241 0
-238 -242 0
-238 -243 0
-239 -240 0
-239 -241 0
-239 -242 0
-239 -243 0
-240 -241 0
-240 -242 0
-240 -243 0
-241 -242 0
-241 -243 0
-242 -243 0
-244 -245 0
-244 -246 0
-244 -247 0
-244 -248 0
-244 -249 0
-244 -250 0
-244 -251 0
-244 -252 0
-245 -246 0
-245 -247 0
-245 -248 0
-245 -249 0
-245 -250 0
-245 -251 0
-245 -252 0
-246 -247 0
-246 -248 0
-246 -249 0
-246 -250 0
-246 -251 0
-246 -252 0
-247 -248 0
-247 -249 0
-247 -250 0
-247 -251 0
-247 -252 0
-248 -249 0
-248 -250 0
-248 -251 0
-248 -252 0
-249 -250 0
-249 -251 0
-249 -252 0
-250 -251 0
-250 -252 0
-251 -252 0
-253 -254 0
-253 -255 0
-253 -256 0
-253 -257 0
-253 -258 0
-253 -259 0
-253 -260 0
-253 -261 0
-254 -255 0
-254 -256 0
-254 -257 0
-254 -258 0
-254 -259 0
-254 -260 0
-254 -261 0
-255 -256 0
-255 -257 0
-255 -258 0
-255 -259 0
-255 -260 0
-255 -261 0
-256 -257 0
-256 -258 0
-256 -259 0
-256 -260 0
-256 -261 0
-257 -258 0
-257 -259 0
-257 -260 0
-257 -261 0
-258 -259 0
-258 -260 0
-258 -261 0
-259 -260 0
-259 -261 0
-260 -261 0
-262 -263 0
-262 -264 0
-262 -265 0
-262 -266 0
-262 -267 0
-262 -268 0
-262 -269 0
-262 -270 0
-263 -264 0
-263 -265 0
-263 -266 0
-263 -267 0
-263 -268 0
-263 -269 0
-263 -270 0
-264 -265 0
-264 -266 0
-264 -267 0
-264 -268 0
-264 -269 0
-264 -270 0
-265 -266 0
-265 -267 0
-265 -268 0
-265 -269 0
-265 -270 0
-266 -267 0
-266 -268 0
-266 -269 0
-266 -270 0
-267 -268 0
-267 -269 0
-267 -270 0
-268 -269 0
-268 -270 0
-269 -270 0
-271 -272 0
-271 -273 0
-271 -274 0
-271 -275 0
-271 -276 0
-271 -277 0
-271 -278 0
-271 -279 0
-272 -273 0
-272 -274 0
-272 -275 0
-272 -276 0
-272 -277 0
-272 -278 0
-272 -279 0
-273 -274 0
-273 -275 0
-273 -276 0
-273 -277 0
-273 -278 0
-273 -279 0
-274 -275 0
-274 -276 0
-274 -277 0
-274 -278 0
-274 -279 0
-275 -276 0
-275 -277 0
-275 -278 0
-275 -279 0
-276 -277 0
-276 -278 0
-276 -279 0
-277 -278 0
-277 -279 0
-278 -279 0
-280 -281 0
-280 -282 0
-280 -283 0
-280 -284 0
-280 -285 0
-280 -286 0
-280 -287 0
-280 -288 0
-281 -282 0
-281 -283 0
-281 -284 0
-281 -285 0
-281 -286 0
-281 -287 0
-281 -288 0
-282 -283 0
-282 -284 0
-282 -285 0
-282 -286 0
-282 -287 0
-282 -288 0
-283 -284 0
-283 -285 0
-283 -286 0
-283 -287 0
-283 -288 0
-284 -285 0
-284 -286 0
-284 -287 0
-284 -288 0
-285 -286 0
-285 -287 0
-285 -288 0
-286 -287 0
-286 -288 0
-287 -288 0
-289 -290 0
-289 -291 0
-289 -292 0
-289 -293 0
-289 -294 0
-289 -295 0
-289 -296 0
-289 -297 0
-290 -291 0
-290 -292 0
-290 -293 0
-290 -294 0
-290 -295 0
-290 -296 0
-290 -297 0
-291 -292 0
-291 -293 0
-291 -294 0
-291 -295 0
-291 -296 0
-291 -297 0
-292 -293 0
-292 -294 0
-292 -295 0
-292 -296 0
-292 -297 0
-293 -294 0
-293 -295 0
-293 -296 0
-293 -297 0
-294 -295 0
-294 -296 0
-294 -297 0
-295 -296 0
-295 -297 0
-296 -297 0
-298 -299 0
-298 -300 0
-298 -301 0
-298 -302 0
-298 -303 0
-298 -304 0
-298 -305 0
-298 -306 0
-299 -300 0
-299 -301 0
-299 -302 0
-299 -303 0
-299 -304 0
-299 -305 0
-299 -306 0
-300 -301 0
-300 -302 0
-300 -303 0
-300 -304 0
-300 -305 0
-300 -306 0
-301 -302 0
-301 -303 0
-301 -304 0
-301 -305 0
-301 -306 0
-302 -303 0
-302 -304 0
-302 -305 0
-302 -306 0
-303 -304 0
-303 -305 0
-303 -306 0
-304 -305 0
-304 -306 0
-305 -306 0
-307 -308 0
-307 -309 0
-307 -310 0
-307 -311 0
-307 -312 0
-307 -313 0
-307 -314 0
-307 -315 0
-308 -309 0
-308 -310 0
-308 -311 0
-308 -312 0
-308 -313 0
-308 -314 0
-308 -315 0
-309 -310 0
-309 -311 0
-309 -312 0
-309 -313 0
-309 -314 0
-309 -315 0
-310 -311 0
-310 -312 0
-310 -313 0
-310 -314 0
-310 -315 0
-311 -312 0
-311 -313 0
-311 -314 0
-311 -315 0
-312 -313 0
-312 -314 0
-312 -315 0
-313 -314 0
-313 -315 0
-314 -315 0
-316 -317 0
-316 -318 0
-316 -319 0
-316 -320 0
-316 -321 0
-316 -322 0
-316 -323 0
-316 -324 0
-317 -318 0
-317 -319 0
-317 -320 0
-317 -321 0
-317 -322 0
-317 -323 0
-317 -324 0
-318 -319 0
-318 -320 0
-318 -321 0
-318 -322 0
-318 -323 0
-318 -324 0
-319 -320 0
-319 -321 0
-319 -322 0
-319 -323 0
-319 -324 0
-320 -321 0
-320 -322 0
-320 -323 0
-320 -324 0
-321 -322 0
-321 -323 0
-321 -324 0
-322 -323 0
-322 -324 0
-323 -324 0
-325 -326 0
-325 -327 0
-325 -328 0
-325 -329 0
-325 -330 0
-325 -331 0
-325 -332 0
-325 -333 0
-326 -327 0
-326 -328 0
-326 -329 0
-326 -330 0
-326 -331 0
-326 -332 0
-326 -333 0
-327 -328 0
-327 -329 0
-327 -330 0
-327 -331 0
-327 -332 0
-327 -333 0
-328 -329 0
-328 -330 0
-328 -331 0
-328 -332 0
-328 -333 0
-329 -330 0
-329 -331 0
-329 -332 0
-329 -333 0
-330 -331 0
-330 -332 0
-330 -333 0
-331 -332 0
-331 -333 0
-332 -333 0
-334 -335 0
-334 -336 0
-334 -337 0
-334 -338 0
-334 -339 0
-334 -340 0
-334 -341 0
-334 -342 0
-335 -336 0
-335 -337 0
-335 -338 0
-335 -339 0
-335 -340 0
-335 -341 0
-335 -342 0
-336 -337 0
-336 -338 0
-336 -339 0
-336 -340 0
-336 -341 0
-336 -342 0
-337 -338 0
-337 -339 0
-337 -340 0
-337 -341 0
-337 -342 0
-338 -339 0
-338 -340 0
-338 -341 0
-338 -342 0
-339 -340 0
-339 -341 0
-339 -342 0
-340 -341 0
-340 -342 0
-341 -342 0
-343 -344 0
-343 -345 0
-343 -346 0
-343 -347 0
-343 -348 0
-343 -349 0
-343 -350 0
-343 -351 0
-344 -345 0
-344 -346 0
-344 -347 0
-344 -348 0
-344 -349 0
-344 -350 0
-344 -351 0
-345 -346 0
-345 -347 0
-345 -348 0
-345 -349 0
-345 -350 0
-345 -351 0
-346 -347 0
-346 -348 0
-346 -349 0
-346 -350 0
-346 -351 0
-347 -348 0
-347 -349 0
-347 -350 0
-347 -351 0
-348 -349 0
-348 -350 0
-348 -351 0
-349 -350 0
-349 -351 0
-350 -351 0
-352 -353 0
-352 -354 0
-352 -355 0
-352 -356 0
-352 -357 0
-352 -358 0
-352 -359 0
-352 -360 0
-353 -354 0
-353 -355 0
-353 -356 0
-353 -357 0
-353 -358 0
-353 -359 0
-353 -360 0
-354 -355 0
-354 -356 0
-354 -357 0
-354 -358 0
-354 -359 0
-354 -360 0
-355 -356 0
-355 -357 0
-355 -358 0
-355 -359 0
-355 -360 0
-356 -357 0
-356 -358 0
-356 -359 0
-356 -360 0
-357 -358 0
-357 -359 0
-357 -360 0
-358 -359 0
-358 -360 0
-359 -360 0
-2 -66 0
-3 -72 0
-6 -71 0
-1 -64 0
-7 -64 0
-9 -66 0
-3 -71 0
-9 -64 0
-8 -69 0
-3 -67 0
-3 -68 0
-3 -69 0
-8 -72 0
-9 -70 0
-2 -65 0
-4 -67 0
-7 -71 0
-5 -66 0
-2 -67 0
-9 -71 0
-4 -65 0
-2 -68 0
-8 -65 0
-3 -70 0
-7 -98 0
-9 -93 0
-7 -94 0
-1 -92 0
-1 -98 0
-7 -93 0
-4 -92 0
-9 -96 0
-4 -91 0
-8 -95 0
-8 -96 0
-2 -97 0
-3 -96 0
-6 -95 0
-8 -91 0
-1 -94 0
-9 -99 0
-7 -97 0
-8 -99 0
-4 -99 0
-5 -94 0
-9 -97 0
-9 -98 0
-8 -94 0
-7 -110 0
-4 -117 0
-2 -112 0
-4 -109 0
-5 -111 0
-2 -114 0
-1 -112 0
-7 -117 0
-5 -114 0
-9 -116 0
-9 -115 0
-7 -112 0
-9 -111 0
-3 -112 0
-2 -113 0
-2 -116 0
-6 -115 0
-5 -110 0
-8 -115 0
-8 -111 0
-6 -114 0
-3 -117 0
-7 -111 0
-9 -112 0
-8 -179 0
-7 -180 0
-9 -172 0
-7 -178 0
-3 -180 0
-3 -176 0
-9 -180 0
-8 -175 0
-2 -178 0
-2 -174 0
-4 -175 0
-8 -174 0
-6 -179 0
-7 -172 0
-8 -176 0
-9 -178 0
-2 -176 0
-6 -178 0
-8 -177 0
-1 -176 0
-2 -173 0
-9 -175 0
-4 -177 0
-2 -172 0
-2 -304 0
-4 -304 0
-9 -301 0
-3 -299 0
-3 -306 0
-8 -301 0
-2 -303 0
-3 -301 0
-3 -300 0
-5 -301 0
-7 -306 0
-5 -304 0
-9 -298 0
-8 -305 0
-6 -300 0
-1 -298 0
-7 -300 0
-9 -299 0
-1 -306 0
-8 -298 0
-5 -303 0
-4 -299 0
-9 -304 0
-1 -302 0
-14 -200 0
-15 -203 0
-16 -204 0
-18 -200 0
-16 -201 0
-15 -204 0
-18 -207 0
-12 -205 0
-13 -206 0
-10 -207 0
-17 -199 0
-10 -200 0
-17 -206 0
-12 -203 0
-14 -205 0
-17 -203 0
-17 -202 0
-10 -205 0
-17 -205 0
-14 -203 0
-14 -201 0
-16 -206 0
-13 -205 0
-12 -199 0
-16 -262 0
-10 -266 0
-10 -263 0
-10 -270 0
-14 -268 0
-17 -270 0
-13 -268 0
-12 -264 0
-18 -263 0
-13 -264 0
-13 -263 0
-14 -266 0
-15 -264 0
-16 -269 0
-10 -264 0
-18 -268 0
-14 -269 0
-16 -270 0
-16 -264 0
-12 -270 0
-15 -266 0
-16 -265 0
-12 -269 0
-18 -264 0
-24 -118 0
-26 -126 0
-23 -118 0
-23 -119 0
-23 -120 0
-20 -122 0
-19 -126 0
-23 -123 0
-22 -126 0
-27 -123 0
-22 -124 0
-20 -118 0
-22 -118 0
-26 -121 0
-20 -126 0
-24 -124 0
-21 -118 0
-22 -121 0
-21 -119 0
-25 -118 0
-22 -119 0
-21 -124 0
-26 -122 0
-24 -123 0
-21 -249 0
-20 -252 0
-21 -251 0
-20 -244 0
-23 -246 0
-22 -244 0
-23 -249 0
-25 -246 0
-24 -247 0
-22 -252 0
-26 -244 0
-27 -252 0
-23 -251 0
-26 -247 0
-24 -252 0
-22 -246 0
-20 -245 0
-22 -250 0
-25 -247 0
-26 -245 0
-23 -252 0
-19 -251 0
-24 -246 0
-20 -247 0
-27 -295 0
-19 -290 0
-21 -294 0
-19 -294 0
-23 -291 0
-25 -294 0
-20 -295 0
-23 -297 0
-22 -295 0
-26 -294 0
-27 -293 0
-25 -293 0
-19 -296 0
-24 -289 0
-20 -294 0
-25 -295 0
-26 -293 0
-27 -296 0
-23 -289 0
-27 -297 0
-20 -297 0
-25 -290 0
-26 -297 0
-25 -289 0
-26 -338 0
-21 -338 0
-27 -336 0
-23 -338 0
-26 -340 0
-25 -336 0
-24 -338 0
-25 -342 0
-20 -339 0
-27 -338 0
-22 -339 0
-21 -341 0
-25 -335 0
-25 -334 0
-27 -335 0
-19 -341 0
-24 -341 0
-22 -337 0
-20 -334 0
-23 -337 0
-21 -339 0
-21 -336 0
-20 -340 0
-25 -341 0
-31 -173 0
-36 -179 0
-32 -173 0
-28 -179 0
-31 -175 0
-33 -173 0
-36 -174 0
-30 -180 0
-31 -178 0
-34 -173 0
-31 -177 0
-34 -177 0
-29 -176 0
-32 -176 0
-29 -179 0
-28 -172 0
-32 -172 0
-31 -172 0
-33 -178 0
-32 -175 0
-36 -175 0
-29 -178 0
-28 -176 0
-28 -173 0
-44 -60 0
-41 -60 0
-44 -62 0
-41 -63 0
-40 -62 0
-43 -57 0
-40 -61 0
-45 -63 0
-37 -63 0
-41 -57 0
-42 -62 0
-41 -61 0
-42 -59 0
-44 -56 0
-42 -61 0
-37 -58 0
-42 -58 0
-42 -60 0
-45 -57 0
-38 -59 0
-39 -61 0
-44 -58 0
-39 -63 0
-40 -60 0
-38 -65 0
-43 -72 0
-44 -72 0
-41 -72 0
-39 -69 0
-43 -66 0
-43 -71 0
-40 -65 0
-40 -72 0
-38 -67 0
-45 -64 0
-45 -71 0
-37 -66 0
-38 -66 0
-40 -69 0
-44 -71 0
-37 -65 0
-44 -67 0
-45 -70 0
-41 -70 0
-45 -67 0
-39 -72 0
-42 -72 0
-43 -64 0
-40 -85 0
-39 -84 0
-39 -89 0
-37 -84 0
-41 -84 0
-43 -82 0
-45 -88 0
-43 -87 0
-39 -88 0
-38 -87 0
-41 -89 0
-40 -89 0
-45 -89 0
-38 -88 0
-44 -87 0
-40 -88 0
-40 -90 0
-38 -84 0
-40 -83 0
-43 -85 0
-43 -88 0
-38 -82 0
-45 -85 0
-38 -85 0
-39 -166 0
-40 -171 0
-39 -171 0
-41 -171 0
-45 -168 0
-41 -170 0
-41 -165 0
-42 -165 0
-44 -165 0
-43 -168 0
-40 -165 0
-37 -168 0
-43 -171 0
-42 -168 0
-45 -167 0
-44 -169 0
-42 -171 0
-42 -164 0
-44 -171 0
-45 -169 0
-38 -166 0
-41 -163 0
-38 -167 0
-39 -163 0
-41 -209 0
-40 -216 0
-38 -209 0
-38 -210 0
-37 -213 0
-43 -209 0
-44 -211 0
-37 -215 0
-37 -214 0
-41 -214 0
-39 -208 0
-45 -210 0
-43 -216 0
-40 -213 0
-45 -211 0
-39 -215 0
-45 -213 0
-42 -214 0
-43 -210 0
-41 -216 0
-44 -213 0
-40 -214 0
-42 -210 0
-43 -212 0
-42 -222 0
-40 -218 0
-39 -218 0
-38 -224 0
-41 -222 0
-41 -225 0
-42 -219 0
-37 -224 0
-44 -219 0
-37 -218 0
-39 -222 0
-43 -221 0
-43 -222 0
-38 -218 0
-45 -218 0
-42 -217 0
-40 -219 0
-41 -223 0
-39 -223 0
-41 -220 0
-42 -225 0
-38 -222 0
-44 -220 0
-38 -223 0
-48 -287 0
-52 -282 0
-51 -286 0
-53 -287 0
-52 -283 0
-50 -282 0
-47 -284 0
-53 -288 0
-51 -287 0
-53 -280 0
-48 -282 0
-50 -287 0
-47 -287 0
-53 -286 0
-49 -283 0
-48 -281 0
-46 -285 0
-52 -281 0
-51 -280 0
-53 -283 0
-50 -280 0
-54 -285 0
-52 -288 0
-52 -280 0
-61 -92 0
-61 -95 0
-58 -94 0
-62 -94 0
-57 -94 0
-55 -94 0
-56 -92 0
-60 -96 0
-61 -98 0
-60 -92 0
-62 -93 0
-59 -96 0
-61 -99 0
-62 -98 0
-59 -99 0
-61 -91 0
-57 -92 0
-56 -96 0
-59 -91 0
-57 -96 0
-60 -99 0
-60 -94 0
-61 -97 0
-55 -93 0
-59 -110 0
-59 -115 0
-58 -117 0
-56 -112 0
-60 -111 0
-55 -112 0
-58 -113 0
-58 -116 0
-63 -117 0
-62 -110 0
-62 -114 0
-60 -116 0
-56 -109 0
-57 -116 0
-62 -109 0
-62 -115 0
-62 -111 0
-59 -111 0
-57 -109 0
-58 -110 0
-63 -113 0
-58 -114 0
-55 -111 0
-55 -110 0
-55 -121 0
-63 -118 0
-55 -124 0
-58 -118 0
-56 -120 0
-63 -124 0
-61 -125 0
-63 -123 0
-59 -122 0
-63 -126 0
-62 -120 0
-57 -120 0
-57 -123 0
-63 -125 0
-61 -121 0
-56 -122 0
-59 -120 0
-60 -123 0
-60 -118 0
-56 -118 0
-59 -118 0
-58 -125 0
-61 -119 0
-62 -122 0
-61 -135 0
-61 -127 0
-55 -131 0
-63 -130 0
-57 -129 0
-60 -131 0
-56 -133 0
-63 -127 0
-60 -134 0
-60 -135 0
-63 -128 0
-59 -135 0
-61 -131 0
-59 -133 0
-63 -134 0
-61 -128 0
-61 -130 0
-60 -133 0
-60 -128 0
-62 -133 0
-60 -129 0
-55 -127 0
-59 -129 0
-55 -135 0
-60 -217 0
-55 -219 0
-61 -218 0
-63 -223 0
-60 -223 0
-61 -225 0
-61 -224 0
-63 -218 0
-60 -219 0
-59 -218 0
-56 -217 0
-59 -222 0
-57 -224 0
-59 -225 0
-57 -220 0
-59 -219 0
-57 -222 0
-57 -217 0
-59 -221 0
-59 -217 0
-55 -217 0
-63 -221 0
-56 -218 0
-60 -222 0
-58 -233 0
-55 -227 0
-58 -229 0
-62 -234 0
-55 -231 0
-60 -234 0
-58 -230 0
-60 -227 0
-62 -233 0
-56 -227 0
-55 -226 0
-62 -227 0
-55 -233 0
-58 -228 0
-61 -233 0
-60 -228 0
-57 -232 0
-60 -230 0
-60 -231 0
-56 -234 0
-61 -227 0
-57 -230 0
-58 -231 0
-60 -229 0
-62 -311 0
-63 -308 0
-55 -315 0
-61 -311 0
-56 -310 0
-57 -315 0
-59 -308 0
-56 -309 0
-55 -313 0
-58 -315 0
-55 -314 0
-61 -315 0
-59 -313 0
-60 -313 0
-57 -313 0
-60 -311 0
-57 -312 0
-63 -311 0
-55 -307 0
-61 -313 0
-56 -312 0
-57 -309 0
-63 -314 0
-61 -309 0
-62 -321 0
-59 -322 0
-57 -318 0
-56 -317 0
-56 -321 0
-57 -321 0
-62 -322 0
-61 -318 0
-55 -319 0
-55 -324 0
-57 -324 0
-63 -322 0
-58 -321 0
-58 -316 0
-58 -318 0
-57 -320 0
-63 -317 0
-58 -319 0
-55 -318 0
-60 -317 0
-61 -316 0
-63 -321 0
-59 -317 0
-56 -324 0
-61 -345 0
-59 -349 0
-62 -350 0
-56 -347 0
-62 -347 0
-61 -347 0
-58 -348 0
-59 -346 0
-63 -345 0
-63 -346 0
-62 -346 0
-62 -343 0
-59 -348 0
-55 -348 0
-55 -343 0
-62 -351 0
-59 -351 0
-60 -351 0
-58 -344 0
-55 -350 0
-63 -350 0
-60 -346 0
-57 -344 0
-56 -345 0
-57 -354 0
-58 -352 0
-58 -357 0
-56 -353 0
-61 -353 0
-62 -354 0
-63 -358 0
-61 -357 0
-61 -359 0
-59 -352 0
-55 -352 0
-57 -352 0
-57 -359 0
-56 -355 0
-63 -355 0
-57 -356 0
-59 -353 0
-60 -356 0
-58 -358 0
-61 -352 0
-59 -355 0
-55 -355 0
-57 -358 0
-62 -356 0
-69 -138 0
-67 -142 0
-66 -143 0
-64 -144 0
-72 -144 0
-72 -142 0
-64 -141 0
-67 -143 0
-72 -141 0
-70 -138 0
-68 -136 0
-65 -136 0
-67 -140 0
-64 -142 0
-69 -143 0
-66 -140 0
-68 -139 0
-64 -137 0
-68 -141 0
-70 -143 0
-65 -144 0
-66 -142 0
-64 -143 0
-64 -139 0
-68 -290 0
-72 -289 0
-72 -293 0
-66 -292 0
-65 -295 0
-70 -289 0
-70 -296 0
-66 -296 0
-65 -297 0
-64 -289 0
-69 -293 0
-68 -293 0
-72 -297 0
-66 -295 0
-67 -297 0
-67 -293 0
-65 -292 0
-64 -295 0
-64 -294 0
-72 -290 0
-70 -292 0
-69 -291 0
-70 -291 0
-71 -289 0
-79 -150 0
-76 -147 0
-78 -147 0
-80 -146 0
-79 -153 0
-81 -151 0
-79 -145 0
-75 -153 0
-73 -150 0
-78 -148 0
-73 -151 0
-75 -146 0
-79 -152 0
-73 -147 0
-73 -146 0
-73 -153 0
-76 -150 0
-73 -145 0
-75 -150 0
-77 -149 0
-74 -149 0
-81 -148 0
-77 -150 0
-76 -145 0
-77 -201 0
-73 -203 0
-79 -199 0
-73 -202 0
-76 -200 0
-78 -200 0
-81 -199 0
-75 -205 0
-78 -199 0
-78 -204 0
-77 -203 0
-78 -203 0
-80 -201 0
-75 -201 0
-76 -199 0
-77 -207 0
-74 -205 0
-81 -207 0
-73 -206 0
-73 -207 0
-75 -202 0
-81 -204 0
-79 -201 0
-79 -205 0
-77 -286 0
-76 -286 0
-73 -280 0
-75 -287 0
-78 -280 0
-78 -288 0
-81 -284 0
-78 -285 0
-74 -286 0
-79 -280 0
-78 -284 0
-77 -282 0
-76 -287 0
-78 -281 0
-78 -283 0
-76 -282 0
-80 -282 0
-73 -282 0
-77 -287 0
-79 -283 0
-81 -286 0
-77 -284 0
-81 -280 0
-75 -282 0
-91 -310 0
-93 -315 0
-95 -313 0
-94 -307 0
-97 -311 0
-97 -314 0
-94 -311 0
-92 -310 0
-94 -308 0
-98 -312 0
-98 -315 0
-93 -313 0
-95 -307 0
-98 -311 0
-98 -307 0
-96 -309 0
-94 -310 0
-91 -308 0
-96 -315 0
-92 -307 0
-96 -307 0
-99 -314 0
-92 -315 0
-94 -315 0
-95 -321 0
-96 -319 0
-99 -321 0
-95 -317 0
-95 -318 0
-91 -322 0
-95 -323 0
-94 -319 0
-93 -324 0
-97 -316 0
-99 -324 0
-95 -320 0
-98 -324 0
-92 -318 0
-92 -323 0
-98 -316 0
-97 -320 0
-99 -318 0
-95 -322 0
-96 -321 0
-94 -316 0
-99 -322 0
-96 -324 0
-92 -320 0
-93 -343 0
-99 -343 0
-91 -350 0
-99 -348 0
-92 -349 0
-91 -347 0
-96 -351 0
-93 -345 0
-99 -350 0
-98 -345 0
-94 -345 0
-97 -351 0
-95 -349 0
-92 -345 0
-99 -344 0
-95 -345 0
-94 -347 0
-98 -351 0
-93 -344 0
-98 -346 0
-91 -348 0
-97 -343 0
-99 -347 0
-93 -349 0
-103 -257 0
-107 -255 0
-101 -258 0
-101 -256 0
-101 -254 0
-103 -253 0
-103 -259 0
-103 -254 0
-107 -260 0
-106 -257 0
-104 -260 0
-105 -261 0
-102 -253 0
-104 -256 0
-108 -255 0
-107 -257 0
-104 -259 0
-105 -259 0
-107 -254 0
-106 -261 0
-102 -260 0
-105 -258 0
-106 -255 0
-108 -257 0
-102 -327 0
-102 -330 0
-108 -330 0
-107 -328 0
-102 -332 0
-107 -332 0
-105 -331 0
-107 -329 0
-106 -327 0
-106 -326 0
-107 -331 0
-103 -331 0
-105 -328 0
-107 -326 0
-102 -325 0
-103 -327 0
-106 -332 0
-104 -326 0
-104 -327 0
-106 -330 0
-106 -331 0
-105 -332 0
-101 -328 0
-101 -325 0
-100 -334 0
-102 -335 0
-107 -342 0
-107 -336 0
-108 -337 0
-108 -336 0
-103 -335 0
-104 -338 0
-104 -335 0
-107 -335 0
-102 -341 0
-106 -337 0
-103 -342 0
-101 -336 0
-108 -338 0
-101 -340 0
-101 -339 0
-105 -336 0
-106 -339 0
-101 -337 0
-107 -338 0
-106 -338 0
-102 -339 0
-100 -341 0
-113 -143 0
-114 -144 0
-112 -141 0
-113 -142 0
-113 -139 0
-111 -141 0
-111 -140 0
-112 -143 0
-116 -142 0
-116 -141 0
-117 -140 0
-116 -140 0
-111 -142 0
-114 -141 0
-114 -142 0
-110 -139 0
-109 -143 0
-117 -139 0
-113 -137 0
-110 -144 0
-109 -136 0
-114 -136 0
-109 -144 0
-112 -137 0
-110 -210 0
-117 -208 0
-113 -213 0
-117 -213 0
-110 -213 0
-113 -210 0
-112 -213 0
-115 -212 0
-110 -208 0
-110 -214 0
-111 -213 0
-113 -209 0
-117 -216 0
-117 -215 0
-116 -215 0
-114 -212 0
-110 -215 0
-117 -211 0
-117 -210 0
-116 -211 0
-114 -209 0
-109 -210 0
-110 -212 0
-115 -208 0
-118 -171 0
-125 -168 0
-121 -164 0
-120 -167 0
-118 -168 0
-120 -169 0
-118 -163 0
-122 -163 0
-120 -166 0
-120 -164 0
-120 -170 0
-126 -171 0
-125 -169 0
-122 -170 0
-122 -167 0
-119 -163 0
-124 -166 0
-121 -166 0
-123 -168 0
-120 -168 0
-119 -165 0
-125 -170 0
-118 -164 0
-123 -170 0
-128 -244 0
-129 -244 0
-130 -252 0
-129 -248 0
-130 -251 0
-133 -244 0
-127 -249 0
-133 -246 0
-134 -248 0
-134 -251 0
-133 -248 0
-132 -248 0
-135 -250 0
-131 -248 0
-135 -246 0
-129 -249 0
-133 -247 0
-132 -246 0
-127 -247 0
-134 -249 0
-129 -247 0
-130 -245 0
-134 -246 0
-130 -246 0
-128 -270 0
-128 -263 0
-129 -264 0
-133 -262 0
-134 -268 0
-135 -269 0
-130 -266 0
-131 -269 0
-131 -268 0
-127 -266 0
-131 -264 0
-130 -269 0
-129 -263 0
-132 -268 0
-135 -265 0
-132 -262 0
-133 -266 0
-133 -267 0
-134 -263 0
-128 -264 0
-130 -264 0
-131 -263 0
-127 -264 0
-133 -270 0
-135 -299 0
-134 -299 0
-132 -298 0
-128 -298 0
-130 -298 0
-129 -300 0
-128 -305 0
-133 -299 0
-133 -305 0
-134 -302 0
-127 -298 0
-134 -306 0
-134 -300 0
-128 -304 0
-128 -303 0
-130 -302 0
-132 -300 0
-128 -306 0
-127 -306 0
-130 -303 0
-127 -300 0
-129 -302 0
-132 -305 0
-132 -302 0
-137 -186 0
-139 -182 0
-138 -186 0
-144 -186 0
-139 -186 0
-139 -183 0
-141 -186 0
-138 -189 0
-141 -184 0
-142 -183 0
-140 -181 0
-140 -183 0
-136 -183 0
-141 -189 0
-143 -185 0
-140 -186 0
-143 -188 0
-139 -188 0
-137 -187 0
-140 -189 0
-139 -187 0
-144 -183 0
-136 -188 0
-141 -187 0
-139 -224 0
-138 -219 0
-138 -220 0
-137 -221 0
-139 -221 0
-141 -219 0
-137 -219 0
-141 -223 0
-140 -220 0
-141 -225 0
-143 -225 0
-139 -225 0
-142 -222 0
-140 -224 0
-136 -219 0
-136 -218 0
-140 -217 0
-139 -218 0
-142 -220 0
-136 -225 0
-142 -221 0
-140 -219 0
-141 -217 0
-143 -217 0
-139 -262 0
-142 -269 0
-144 -270 0
-143 -269 0
-142 -270 0
-137 -268 0
-140 -270 0
-141 -270 0
-138 -263 0
-138 -262 0
-136 -262 0
-137 -265 0
-141 -266 0
-142 -267 0
-142 -265 0
-144 -267 0
-138 -264 0
-144 -265 0
-137 -263 0
-144 -264 0
-138 -270 0
-144 -268 0
-140 -264 0
-140 -265 0
-138 -307 0
-144 -311 0
-143 -315 0
-140 -315 0
-139 -309 0
-136 -312 0
-141 -310 0
-136 -313 0
-138 -313 0
-139 -315 0
-139 -313 0
-143 -309 0
-139 -307 0
-136 -315 0
-136 -309 0
-140 -313 0
-143 -311 0
-139 -314 0
-143 -314 0
-142 -313 0
-136 -307 0
-138 -308 0
-144 -309 0
-141 -309 0
-153 -157 0
-153 -154 0
-152 -158 0
-151 -156 0
-152 -154 0
-146 -156 0
-150 -155 0
-152 -155 0
-147 -158 0
-147 -157 0
-147 -161 0
-146 -160 0
-151 -155 0
-153 -159 0
-146 -154 0
-145 -155 0
-148 -155 0
-153 -155 0
-149 -161 0
-151 -162 0
-146 -159 0
-150 -154 0
-150 -161 0
-149 -162 0
-153 -219 0
-152 -223 0
-150 -225 0
-147 -223 0
-149 -221 0
-145 -219 0
-151 -225 0
-149 -219 0
-148 -221 0
-149 -217 0
-146 -217 0
-151 -224 0
-145 -217 0
-150 -221 0
-148 -219 0
-150 -217 0
-152 -222 0
-152 -224 0
-147 -220 0
-147 -222 0
-145 -223 0
-149 -224 0
-145 -224 0
-147 -225 0
-151 -226 0
-146 -228 0
-148 -227 0
-150 -233 0
-150 -231 0
-145 -232 0
-150 -232 0
-152 -234 0
-148 -234 0
-149 -228 0
-149 -234 0
-150 -228 0
-150 -230 0
-152 -231 0
-146 -232 0
-145 -230 0
-150 -227 0
-149 -233 0
-153 -234 0
-145 -233 0
-147 -233 0
-147 -232 0
-151 -231 0
-151 -227 0
-146 -316 0
-153 -318 0
-152 -320 0
-147 -322 0
-151 -318 0
-145 -322 0
-146 -322 0
-151 -316 0
-149 -322 0
-152 -323 0
-148 -322 0
-150 -322 0
-150 -320 0
-151 -323 0
-146 -317 0
-149 -321 0
-151 -319 0
-153 -317 0
-147 -317 0
-152 -321 0
-148 -324 0
-149 -320 0
-150 -318 0
-151 -320 0
-157 -164 0
-154 -169 0
-161 -165 0
-154 -171 0
-162 -168 0
-156 -164 0
-158 -170 0
-158 -171 0
-160 -169 0
-162 -170 0
-161 -169 0
-160 -163 0
-161 -171 0
-159 -166 0
-157 -168 0
-155 -167 0
-160 -166 0
-158 -168 0
-155 -169 0
-157 -165 0
-159 -165 0
-156 -163 0
-156 -168 0
-161 -167 0
-158 -232 0
-160 -230 0
-159 -233 0
-154 -228 0
-162 -232 0
-157 -229 0
-161 -226 0
-154 -233 0
-156 -229 0
-155 -233 0
-157 -231 0
-160 -232 0
-157 -234 0
-154 -226 0
-155 -226 0
-159 -229 0
-154 -234 0
-156 -233 0
-157 -233 0
-162 -231 0
-158 -231 0
-158 -233 0
-158 -228 0
-155 -231 0
-167 -180 0
-165 -173 0
-171 -177 0
-166 -172 0
-167 -177 0
-166 -178 0
-165 -174 0
-167 -176 0
-165 -176 0
-165 -177 0
-169 -175 0
-163 -177 0
-167 -174 0
-163 -178 0
-163 -172 0
-165 -180 0
-171 -175 0
-169 -179 0
-168 -175 0
-171 -176 0
-166 -174 0
-168 -173 0
-169 -180 0
-163 -180 0
-167 -199 0
-163 -205 0
-169 -203 0
-170 -206 0
-168 -203 0
-168 -199 0
-163 -204 0
-170 -207 0
-169 -199 0
-165 -204 0
-164 -200 0
-169 -206 0
-168 -200 0
-164 -204 0
-166 -205 0
-163 -206 0
-167 -202 0
-167 -207 0
-171 -203 0
-163 -207 0
-165 -200 0
-167 -205 0
-169 -201 0
-165 -201 0
-168 -329 0
-167 -331 0
-163 -328 0
-166 -330 0
-171 -332 0
-169 -327 0
-166 -327 0
-167 -329 0
-169 -330 0
-169 -325 0
-168 -326 0
-163 -332 0
-169 -326 0
-165 -329 0
-164 -325 0
-170 -327 0
-171 -333 0
-164 -331 0
-166 -331 0
-164 -329 0
-169 -333 0
-171 -328 0
-167 -325 0
-166 -333 0
-179 -202 0
-176 -200 0
-177 -204 0
-175 -202 0
-178 -204 0
-179 -201 0
-174 -202 0
-175 -205 0
-178 -199 0
-176 -204 0
-180 -205 0
-174 -201 0
-174 -200 0
-174 -206 0
-178 -202 0
-172 -203 0
-173 -205 0
-176 -201 0
-177 -206 0
-179 -199 0
-173 -199 0
-178 -206 0
-173 -203 0
-173 -204 0
-178 -316 0
-179 -322 0
-173 -323 0
-177 -321 0
-172 -323 0
-173 -321 0
-174 -320 0
-175 -323 0
-177 -323 0
-172 -318 0
-180 -323 0
-172 -316 0
-173 -320 0
-176 -323 0
-179 -323 0
-180 -319 0
-175 -317 0
-174 -324 0
-178 -317 0
-173 -322 0
-180 -321 0
-178 -318 0
-172 -324 0
-179 -316 0
-181 -236 0
-189 -235 0
-182 -238 0
-187 -235 0
-184 -238 0
-189 -241 0
-183 -235 0
-184 -241 0
-181 -238 0
-184 -235 0
-182 -236 0
-186 -241 0
-188 -236 0
-181 -241 0
-189 -238 0
-185 -240 0
-188 -235 0
-186 -239 0
-187 -243 0
-186 -237 0
-183 -242 0
-187 -241 0
-184 -239 0
-182 -237 0
-181 -329 0
-186 -327 0
-186 -331 0
-184 -328 0
-181 -325 0
-182 -328 0
-183 -327 0
-188 -325 0
-181 -332 0
-187 -332 0
-187 -331 0
-189 -331 0
-182 -325 0
-183 -328 0
-184 -330 0
-184 -327 0
-189 -333 0
-186 -329 0
-181 -328 0
-187 -329 0
-183 -333 0
-181 -331 0
-186 -328 0
-182 -329 0
-196 -232 0
-198 -230 0
-197 -234 0
-195 -227 0
-198 -226 0
-192 -230 0
-190 -231 0
-193 -234 0
-192 -227 0
-195 -230 0
-194 -233 0
-196 -233 0
-198 -233 0
-192 -234 0
-190 -234 0
-192 -226 0
-190 -228 0
-190 -227 0
-197 -232 0
-195 -226 0
-191 -233 0
-191 -234 0
-193 -232 0
-198 -232 0
-193 -240 0
-190 -240 0
-192 -241 0
-196 -235 0
-195 -241 0
-194 -239 0
-194 -242 0
-193 -235 0
-191 -242 0
-193 -241 0
-190 -235 0
-197 -239 0
-192 -236 0
-191 -241 0
-192 -237 0
-196 -239 0
-196 -241 0
-197 -235 0
-197 -242 0
-195 -236 0
-195 -238 0
-191 -237 0
-192 -240 0
-198 -235 0
-203 -227 0
-206 -230 0
-200 -233 0
-204 -230 0
-205 -226 0
-200 -227 0
-202 -229 0
-202 -234 0
-207 -226 0
-207 -227 0
-200 -226 0
-204 -227 0
-206 -226 0
-199 -228 0
-205 -228 0
-202 -226 0
-207 -231 0
-204 -232 0
-202 -230 0
-201 -226 0
-205 -234 0
-201 -230 0
-207 -229 0
-205 -233 0
-202 -250 0
-202 -252 0
-207 -249 0
-203 -245 0
-200 -248 0
-207 -244 0
-201 -246 0
-202 -247 0
-206 -250 0
-203 -249 0
-203 -244 0
-206 -251 0
-204 -244 0
-207 -247 0
-204 -251 0
-206 -249 0
-204 -249 0
-205 -249 0
-200 -247 0
-199 -251 0
-203 -251 0
-201 -249 0
-199 -245 0
-201 -252 0
-209 -295 0
-208 -293 0
-212 -295 0
-209 -293 0
-216 -295 0
-210 -293 0
-209 -290 0
-216 -293 0
-208 -292 0
-214 -290 0
-213 -291 0
-208 -295 0
-209 -292 0
-214 -292 0
-212 -293 0
-211 -297 0
-212 -290 0
-208 -289 0
-208 -291 0
-210 -289 0
-212 -296 0
-209 -297 0
-215 -291 0
-216 -290 0
-224 -344 0
-219 -344 0
-218 -350 0
-220 -350 0
-221 -345 0
-224 -347 0
-220 -343 0
-222 -351 0
-220 -349 0
-220 -348 0
-224 -346 0
-222 -345 0
-223 -350 0
-222 -344 0
-218 -348 0
-219 -349 0
-220 -346 0
-225 -345 0
-225 -346 0
-224 -349 0
-218 -349 0
-224 -350 0
-220 -344 0
-224 -343 0
-221 -355 0
-223 -356 0
-218 -353 0
-217 -356 0
-221 -358 0
-225 -357 0
-225 -356 0
-225 -359 0
-224 -356 0
-219 -352 0
-219 -360 0
-223 -357 0
-219 -359 0
-225 -352 0
-223 -358 0
-217 -358 0
-222 -353 0
-223 -355 0
-220 -358 0
-225 -355 0
-217 -359 0
-218 -357 0
-218 -358 0
-224 -354 0
-242 -270 0
-239 -262 0
-237 -268 0
-239 -263 0
-240 -264 0
-242 -269 0
-236 -266 0
-243 -264 0
-241 -265 0
-241 -262 0
-239 -270 0
-235 -266 0
-241 -270 0
-240 -268 0
-241 -267 0
-241 -266 0
-239 -268 0
-243 -263 0
-243 -266 0
-242 -265 0
-243 -262 0
-239 -265 0
-238 -263 0
-235 -268 0
-249 -316 0
-250 -324 0
-252 -319 0
-244 -322 0
-249 -317 0
-250 -323 0
-247 -324 0
-249 -321 0
-245 -319 0
-252 -318 0
-246 -318 0
-245 -318 0
-251 -322 0
-246 -317 0
-246 -324 0
-245 -322 0
-245 -321 0
-251 -323 0
-252 -320 0
-250 -318 0
-248 -318 0
-247 -318 0
-244 -318 0
-246 -323 0
-249 -333 0
-244 -333 0
-247 -333 0
-244 -326 0
-249 -325 0
-246 -331 0
-250 -326 0
-251 -331 0
-250 -332 0
-249 -329 0
-252 -332 0
-249 -328 0
-244 -328 0
-244 -331 0
-250 -329 0
-246 -333 0
-246 -328 0
-248 -330 0
-244 -325 0
-248 -325 0
-249 -326 0
-248 -329 0
-245 -333 0
-251 -330 0
-268 -346 0
-267 -348 0
-269 -348 0
-262 -349 0
-263 -350 0
-269 -345 0
-265 -347 0
-264 -347 0
-263 -344 0
-265 -351 0
-266 -343 0
-263 -345 0
-264 -351 0
-270 -347 0
-270 -351 0
-267 -343 0
-269 -350 0
-269 -349 0
-270 -349 0
-266 -348 0
-270 -346 0
-270 -343 0
-262 -348 0
-267 -345 0
-274 -288 0
-273 -284 0
-272 -285 0
-271 -283 0
-275 -280 0
-276 -280 0
-271 -282 0
-279 -286 0
-273 -285 0
-279 -282 0
-277 -287 0
-279 -284 0
-277 -280 0
-278 -282 0
-279 -280 0
-274 -284 0
-278 -288 0
-278 -283 0
-271 -287 0
-272 -287 0
-271 -288 0
-278 -280 0
-276 -282 0
-278 -287 0
-287 -316 0
-282 -316 0
-284 -324 0
-288 -321 0
-281 -319 0
-285 -322 0
-285 -317 0
-288 -317 0
-280 -320 0
-286 -318 0
-287 -323 0
-282 -321 0
-281 -324 0
-281 -317 0
-283 -320 0
-281 -321 0
-282 -319 0
-283 -324 0
-286 -322 0
-285 -320 0
-283 -322 0
-287 -322 0
-288 -316 0
-282 -323 0
-312 -343 0
-313 -348 0
-309 -344 0
-314 -346 0
-313 -346 0
-315 -351 0
-312 -345 0
-310 -350 0
-307 -349 0
-314 -347 0
-313 -344 0
-312 -348 0
-311 -349 0
-315 -343 0
-313 -350 0
-309 -345 0
-311 -348 0
-314 -344 0
-312 -347 0
-313 -345 0
-311 -343 0
-310 -345 0
-315 -349 0
-310 -351 0
-345 -353 0
-351 -352 0
-346 -356 0
-348 -357 0
-350 -359 0
-344 -354 0
-349 -353 0
-343 -357 0
-343 -359 0
-347 -360 0
-348 -358 0
-350 -355 0
-349 -359 0
-350 -356 0
-349 -354 0
-347 -354 0
-345 -352 0
-345 -357 0
-343 -360 0
-347 -353 0
-350 -352 0
-347 -356 0
-348 -352 0
-346 -358 0
